
Gurobi 11.0.1 (win64) logging started Mon May 13 14:59:45 2024

Set parameter LogFile to value "output/solver_log18.txt"
Gurobi Optimizer version 11.0.1 build v11.0.1rc0 (win64 - Windows 11.0 (22631.2))

CPU model: 11th Gen Intel(R) Core(TM) i7-1165G7 @ 2.80GHz, instruction set [SSE2|AVX|AVX2|AVX512]
Thread count: 4 physical cores, 8 logical processors, using up to 8 threads

Optimize a model with 1241 rows, 384 columns and 22849 nonzeros
Model fingerprint: 0xa29f8efa
Variable types: 88 continuous, 296 integer (296 binary)
Coefficient statistics:
  Matrix range     [4e-01, 1e+05]
  Objective range  [1e+00, 1e+02]
  Bounds range     [1e+00, 1e+00]
  RHS range        [1e-02, 1e+05]

User MIP start produced solution with objective 58543.5 (0.00s)
User MIP start produced solution with objective 58543.5 (0.01s)
Loaded user MIP start with objective 58543.5

Presolve removed 160 rows and 164 columns
Presolve time: 0.04s
Presolved: 1081 rows, 220 columns, 21506 nonzeros
Variable types: 83 continuous, 137 integer (136 binary)

Root relaxation: cutoff, 24 iterations, 0.00 seconds (0.00 work units)

    Nodes    |    Current Node    |     Objective Bounds      |     Work
 Expl Unexpl |  Obj  Depth IntInf | Incumbent    BestBd   Gap | It/Node Time

     0     0     cutoff    0      58543.4824 58543.4824  0.00%     -    0s

Explored 1 nodes (24 simplex iterations) in 0.09 seconds (0.08 work units)
Thread count was 8 (of 8 available processors)

Solution count 2: 58543.5 58543.5 

Optimal solution found (tolerance 1.00e-04)
Best objective 5.854348237962e+04, best bound 5.854348237962e+04, gap 0.0000%
